NAME : mEgtspf.pid8103.gtsp.161061411.tour
COMMENT : Length = 161061411
COMMENT : Found by LKH [Keld Helsgaun] Tue Mar 18 16:38:04 2025
TYPE : TOUR
DIMENSION : 90
TOUR_SECTION
1
66
63
64
65
5
90
87
88
89
7
54
51
52
53
2
31
32
33
34
29
30
27
28
3
69
70
67
68
80
81
82
79
45
46
43
44
25
26
23
24
17
18
15
16
4
72
73
74
71
49
50
47
48
57
58
55
56
84
85
86
83
12
13
14
11
8
77
78
75
76
9
10
6
60
61
62
59
36
37
38
35
41
42
39
40
22
19
20
21
-1
EOF
